120
150
58
44
53
57
60
40
60
56
48
40
54
53
57
40
60
44
50
51
49
46
51
59
59
48
40
45
60
53
45
57
47
59
60
47
54
56
52
43
57
57
41
52
44
55
40
41
51
57
47
44
53
53
48
54
50
56
56
40
44
48
47
59
51
56
49
56
40
53
50
60
54
55
59
49
50
41
40
55
58
47
52
43
56
49
40
55
49
47
53
60
50
41
49
44
45
51
45
55
58
48
44
50
51
44
60
45
60
49
53
50
49
41
53
42
60
46
47
46
48
60
